NAME : lrc101.1708795.tour
COMMENT : Cost = 0_1708795
COMMENT : Found by LKH [Keld Helsgaun] Fri Sep 15 17:42:02 2017
TYPE : TOUR
DIMENSION : 120
TOUR_SECTION
1
60
76
88
98
59
78
113
84
24
22
20
19
49
26
102
112
65
104
91
85
57
67
116
73
37
39
42
41
44
38
36
111
28
32
86
103
90
92
114
40
43
45
62
82
97
55
69
118
83
12
16
17
10
11
14
18
120
70
99
89
54
79
61
101
71
119
64
77
105
52
23
50
21
25
115
6
46
3
8
7
9
4
2
106
5
109
34
29
30
31
27
35
33
94
110
66
53
100
58
87
75
108
15
48
13
74
107
80
47
56
117
93
96
63
68
72
95
51
81
-1
EOF
